NAME          
ROWS
 N  OBJ
 L  c1
COLUMNS
    MARKER    'MARKER'                 'INTORG'
    x[1]      c1        962
    x[1]      OBJ       -971
    x[2]      c1        683
    x[2]      OBJ       -669
    x[3]      c1        513
    x[3]      OBJ       -554
    x[4]      c1        839
    x[4]      OBJ       -850
    x[5]      c1        507
    x[5]      OBJ       -419
    x[6]      c1        91
    x[6]      OBJ       -83
    x[7]      c1        222
    x[7]      OBJ       -162
    x[8]      c1        809
    x[8]      OBJ       -903
    x[9]      c1        214
    x[9]      OBJ       -177
    x[10]     c1        498
    x[10]     OBJ       -497
    x[11]     c1        542
    x[11]     OBJ       -566
    x[12]     c1        239
    x[12]     OBJ       -256
    x[13]     c1        830
    x[13]     OBJ       -793
    x[14]     c1        -12
    x[14]     OBJ       -21
    x[15]     c1        888
    x[15]     OBJ       -892
    x[16]     c1        457
    x[16]     OBJ       -499
    x[17]     c1        144
    x[17]     OBJ       -195
    x[18]     c1        111
    x[18]     OBJ       -50
    x[19]     c1        358
    x[19]     OBJ       -300
    x[20]     c1        988
    x[20]     OBJ       -988
    x[21]     c1        759
    x[21]     OBJ       -775
    x[22]     c1        865
    x[22]     OBJ       -844
    x[23]     c1        57
    x[23]     OBJ       -65
    x[24]     c1        619
    x[24]     OBJ       -627
    x[25]     c1        641
    x[25]     OBJ       -603
    x[26]     c1        148
    x[26]     OBJ       -62
    x[27]     c1        492
    x[27]     OBJ       -460
    x[28]     c1        650
    x[28]     OBJ       -565
    x[29]     c1        537
    x[29]     OBJ       -604
    x[30]     c1        327
    x[30]     OBJ       -312
    x[31]     c1        1036
    x[31]     OBJ       -989
    x[32]     c1        280
    x[32]     OBJ       -272
    x[33]     c1        152
    x[33]     OBJ       -61
    x[34]     c1        40
    x[34]     OBJ       -26
    x[35]     c1        262
    x[35]     OBJ       -279
    x[36]     c1        191
    x[36]     OBJ       -159
    x[37]     c1        655
    x[37]     OBJ       -609
    x[38]     c1        213
    x[38]     OBJ       -174
    x[39]     c1        524
    x[39]     OBJ       -605
    x[40]     c1        602
    x[40]     OBJ       -595
    x[41]     c1        1072
    x[41]     OBJ       -980
    x[42]     c1        693
    x[42]     OBJ       -719
    x[43]     c1        69
    x[43]     OBJ       -101
    x[44]     c1        418
    x[44]     OBJ       -369
    x[45]     c1        454
    x[45]     OBJ       -547
    x[46]     c1        91
    x[46]     OBJ       -86
    x[47]     c1        96
    x[47]     OBJ       -63
    x[48]     c1        415
    x[48]     OBJ       -338
    x[49]     c1        627
    x[49]     OBJ       -539
    x[50]     c1        426
    x[50]     OBJ       -437
RHS
    rhs       c1        11647
RANGES
BOUNDS
 BV bounds    x[1]
 BV bounds    x[2]
 BV bounds    x[3]
 BV bounds    x[4]
 BV bounds    x[5]
 BV bounds    x[6]
 BV bounds    x[7]
 BV bounds    x[8]
 BV bounds    x[9]
 BV bounds    x[10]
 BV bounds    x[11]
 BV bounds    x[12]
 BV bounds    x[13]
 BV bounds    x[14]
 BV bounds    x[15]
 BV bounds    x[16]
 BV bounds    x[17]
 BV bounds    x[18]
 BV bounds    x[19]
 BV bounds    x[20]
 BV bounds    x[21]
 BV bounds    x[22]
 BV bounds    x[23]
 BV bounds    x[24]
 BV bounds    x[25]
 BV bounds    x[26]
 BV bounds    x[27]
 BV bounds    x[28]
 BV bounds    x[29]
 BV bounds    x[30]
 BV bounds    x[31]
 BV bounds    x[32]
 BV bounds    x[33]
 BV bounds    x[34]
 BV bounds    x[35]
 BV bounds    x[36]
 BV bounds    x[37]
 BV bounds    x[38]
 BV bounds    x[39]
 BV bounds    x[40]
 BV bounds    x[41]
 BV bounds    x[42]
 BV bounds    x[43]
 BV bounds    x[44]
 BV bounds    x[45]
 BV bounds    x[46]
 BV bounds    x[47]
 BV bounds    x[48]
 BV bounds    x[49]
 BV bounds    x[50]
ENDATA
